NAME          
ROWS
 N  OBJ
 L  c1
 L  c2
 L  c3
 L  c4
 L  c5
COLUMNS
    MARKER    'MARKER'                 'INTORG'
    x[1]      c1        410
    x[1]      c2        779
    x[1]      c3        587
    x[1]      c4        442
    x[1]      c5        86
    x[1]      OBJ       -437
    x[2]      c1        759
    x[2]      c2        870
    x[2]      c3        2
    x[2]      c4        382
    x[2]      c5        757
    x[2]      OBJ       -295
    x[3]      c1        447
    x[3]      c2        157
    x[3]      c3        294
    x[3]      c4        952
    x[3]      c5        530
    x[3]      OBJ       -717
    x[4]      c1        507
    x[4]      c2        716
    x[4]      c3        544
    x[4]      c4        723
    x[4]      c5        651
    x[4]      OBJ       -940
    x[5]      c1        583
    x[5]      c2        895
    x[5]      c3        466
    x[5]      c4        552
    x[5]      c5        883
    x[5]      OBJ       -429
    x[6]      c1        397
    x[6]      c2        441
    x[6]      c3        987
    x[6]      c4        306
    x[6]      c5        514
    x[6]      OBJ       -778
    x[7]      c1        765
    x[7]      c2        746
    x[7]      c3        610
    x[7]      c4        978
    x[7]      c5        296
    x[7]      OBJ       -687
    x[8]      c1        1000
    x[8]      c2        444
    x[8]      c3        615
    x[8]      c4        303
    x[8]      c5        358
    x[8]      OBJ       -831
    x[9]      c1        743
    x[9]      c2        953
    x[9]      c3        129
    x[9]      c4        45
    x[9]      c5        526
    x[9]      OBJ       -52
    x[10]     c1        587
    x[10]     c2        422
    x[10]     c3        551
    x[10]     c4        204
    x[10]     c5        267
    x[10]     OBJ       -603
RHS
    rhs       c1        3099
    rhs       c2        3212
    rhs       c3        2392
    rhs       c4        2444
    rhs       c5        2434
RANGES
BOUNDS
 BV bounds    x[1]
 BV bounds    x[2]
 BV bounds    x[3]
 BV bounds    x[4]
 BV bounds    x[5]
 BV bounds    x[6]
 BV bounds    x[7]
 BV bounds    x[8]
 BV bounds    x[9]
 BV bounds    x[10]
ENDATA
